(set-logic QF_S)
(declare-fun var0 () String)
(assert (str.in.re var0 (re.++ (re.* (re.+ (str.to.re "00"))) (re.++ (re.+ (re.* (str.to.re "111"))) (re.++ (re.union (re.union (str.to.re "2") (str.to.re "3")) (re.union (str.to.re "44") (str.to.re "55"))) (re.++ (re.union (re.* (str.to.re "666")) (re.* (str.to.re "7"))) (re.++ (re.* (re.* (str.to.re "8"))) (re.++ (re.union (re.+ (str.to.re "9")) (re.+ (str.to.re "a"))) (re.++ (re.union (re.* (str.to.re "bb")) (re.* (str.to.re "c"))) (re.++ (re.union (re.* (str.to.re "ddd")) (re.* (str.to.re "eee"))) (re.++ (re.union (re.union (str.to.re "f") (str.to.re "ggg")) (re.union (str.to.re "hh") (str.to.re "ii"))) (re.+ (re.* (str.to.re "jj"))))))))))))))
(assert (<= 201 (str.len var0)))
(check-sat)